solution status: optimal solution found
objective value:                            40229.936
y#1                                                 1 	(obj:5700)
y#2                                                 1 	(obj:5700)
y#3                                                 1 	(obj:5700)
y#4                                                 1 	(obj:5700)
y#7                                                 1 	(obj:5700)
y#9                                                 1 	(obj:5700)
y#10                                                1 	(obj:5700)
x#1#2                                               1 	(obj:3.009)
x#2#4                                               1 	(obj:7.752)
x#3#1                                               1 	(obj:2.669)
x#4#10                                              1 	(obj:5.576)
x#5#7                                               1 	(obj:6.375)
x#6#7                                               1 	(obj:2.941)
x#7#7                                               1 	(obj:6.137)
x#8#9                                               1 	(obj:13.889)
x#9#3                                               1 	(obj:4.233)
x#10#3                                              1 	(obj:5.185)
x#11#3                                              1 	(obj:6.205)
x#12#9                                              1 	(obj:12.053)
x#13#9                                              1 	(obj:4.828)
x#14#2                                              1 	(obj:2.516)
x#15#2                                              1 	(obj:2.669)
x#16#2                                              1 	(obj:1.904)
x#17#2                                              1 	(obj:3.485)
x#18#4                                              1 	(obj:3.859)
x#19#4                                              1 	(obj:1.19)
x#20#3                                              1 	(obj:2.499)
x#21#3                                              1 	(obj:3.604)
x#22#9                                              1 	(obj:6.596)
x#23#9                                              1 	(obj:5.576)
x#24#9                                              1 	(obj:9.877)
x#25#9                                              1 	(obj:13.362)
x#26#7                                              1 	(obj:11.05)
x#27#7                                              1 	(obj:10.132)
x#28#7                                              1 	(obj:13.379)
x#29#4                                              1 	(obj:8.891)
x#30#2                                              1 	(obj:5.253)
x#31#4                                              1 	(obj:3.128)
x#32#3                                              1 	(obj:6.732)
x#33#3                                              1 	(obj:3.162)
x#34#10                                             1 	(obj:6.324)
x#35#4                                              1 	(obj:9.197)
x#36#10                                             1 	(obj:4.981)
x#37#10                                             1 	(obj:6.137)
x#38#7                                              1 	(obj:7.004)
x#39#9                                              1 	(obj:4.131)
x#40#4                                              1 	(obj:6.698)
x#41#4                                              1 	(obj:11.033)
x#42#2                                              1 	(obj:1.462)
x#43#2                                              1 	(obj:2.465)
x#44#2                                              1 	(obj:3.536)
x#45#10                                             1 	(obj:5.984)
x#46#1                                              1 	(obj:2.159)
x#47#1                                              1 	(obj:2.55)
x#48#1                                              1 	(obj:6.052)
x#49#1                                              1 	(obj:5.304)
x#50#1                                              1 	(obj:4.59)
x#51#1                                              1 	(obj:4.658)
x#52#10                                             1 	(obj:9.928)
x#53#10                                             1 	(obj:10.285)
x#54#1                                              1 	(obj:2.261)
x#55#10                                             1 	(obj:8.874)
x#56#7                                              1 	(obj:4.607)
